120
150
56
73
77
49
80
86
44
35
23
67
93
95
67
98
58
83
30
54
84
60
50
68
79
96
68
23
58
77
51
69
98
88
32
24
98
92
76
91
98
91
74
39
73
35
64
87
33
65
43
53
27
42
97
80
66
44
54
27
100
33
73
90
100
23
81
28
65
45
26
99
59
96
69
63
96
51
93
49
83
94
94
49
79
82
20
22
94
76
83
37
72
95
46
31
25
48
57
94
76
63
71
62
89
32
60
33
40
74
61
82
66
94
53
72
75
80
45
59
75
60
